p cnf 12 50 
-8 -1 -3 0
8 -3 6 0
11 2 -8 0
10 -5 -2 0
-2 -7 -3 0
7 10 12 0
12 1 8 0
-7 11 -6 0
1 7 -5 0
11 -7 5 0
3 2 4 0
-8 9 -7 0
-8 9 -5 0
7 2 4 0
12 -7 -10 0
-5 2 -1 0
3 -11 6 0
-5 -3 11 0
10 -9 7 0
8 9 12 0
-12 7 1 0
-4 -12 2 0
-3 12 -8 0
-8 -1 -11 0
5 9 -10 0
4 -10 -6 0
9 6 -12 0
2 -10 8 0
11 8 1 0
5 1 6 0
-12 7 -8 0
6 -10 -3 0
-12 4 -10 0
-4 1 -11 0
2 -12 1 0
2 -10 7 0
-8 -10 -11 0
-8 3 -4 0
2 8 -11 0
-10 9 2 0
-6 -9 2 0
1 -7 -12 0
-1 -12 6 0
7 12 -8 0
-7 1 5 0
-7 -5 12 0
3 -1 -11 0
-12 -7 -6 0
-7 -6 11 0
-6 9 -2 0
